NAME: concorde4
TYPE: TSP
RUN_TIME: 0.001
DISTANCE: 215
COMMENT: Solution by max williams
DIMENSION: 4
EDGE_WEIGHT_TYPE: EUC_2D
NODE_COORD_SECTION
1 87.951294 2.658162
3 91.778310 53.807182
2 33.466600 66.682945
4 20.526749 47.633290
